Version identifier: 20.1.0.0 | 2020-11-10 | 9bedb6d68
Tried aggregator 2 times.
MIP Presolve eliminated 1972 rows and 1088 columns.
MIP Presolve modified 4752 coefficients.
Aggregator did 192 substitutions.
Reduced MIP has 2855 rows, 2245 columns, and 9418 nonzeros.
Reduced MIP has 472 binaries, 1773 generals, 0 SOSs, and 0 indicators.
Presolve time = 0.03 sec. (11.10 ticks)
Probing fixed 60 vars, tightened 486 bounds.
Probing time = 0.00 sec. (2.18 ticks)
Tried aggregator 2 times.
Detecting symmetries...
MIP Presolve eliminated 1232 rows and 64 columns.
MIP Presolve modified 179 coefficients.
Aggregator did 2 substitutions.
Reduced MIP has 1621 rows, 2179 columns, and 5414 nonzeros.
Reduced MIP has 594 binaries, 1585 generals, 0 SOSs, and 0 indicators.
Presolve time = 0.02 sec. (7.46 ticks)
Probing time = 0.00 sec. (0.55 ticks)
Clique table members: 185.
MIP emphasis: balance optimality and feasibility.
MIP search method: dynamic search.
Parallel mode: deterministic, using up to 24 threads.
Root relaxation solution time = 0.03 sec. (5.75 ticks)

        Nodes                                         Cuts/
   Node  Left     Objective  IInf  Best Integer    Best Bound    ItCnt     Gap

      0     0        0.0000    74                      0.0000      511         
      0     0        0.0000    66                   Cuts: 204      647         
*     0+    0                           30.0000        0.0000           100.00%
      0     0        0.8182   225       30.0000     Cuts: 195      894   76.67%
      0     0        1.1083   224       30.0000      Cuts: 88      987   76.67%
      0     0        1.6000   104       30.0000      Cuts: 41     1024   76.67%
      0     0        1.8769   106       30.0000      Cuts: 26     1058   76.67%
*     0+    0                           28.0000        7.0000            75.00%
*     0+    0                           16.0000        7.0000            56.25%
      0     2        1.8769    70       16.0000       13.0000     1058   18.75%
Elapsed time = 1.30 sec. (210.67 ticks, tree = 0.02 MB, solutions = 3)
*   314    87      integral     0       15.0000       13.0000    31804   13.33%
*   545+   57                           14.0000       13.0000             7.14%
*   602+   52                           13.0000       13.0000             0.00%

Cover cuts applied:  9
Implied bound cuts applied:  217
Flow cuts applied:  4
Mixed integer rounding cuts applied:  17
Zero-half cuts applied:  131
Lift and project cuts applied:  15
Gomory fractional cuts applied:  19

Root node processing (before b&c):
  Real time             =    1.12 sec. (210.07 ticks)
Parallel b&c, 24 threads:
  Real time             =    1.22 sec. (137.62 ticks)
  Sync time (average)   =    0.81 sec.
  Wait time (average)   =    0.00 sec.
                          ------------
Total (root+branch&cut) =    2.33 sec. (347.69 ticks)

Solution status = Optimal
Solution LB = 13
Solution UB = 13
Runtime = 2.33873 seconds
	Command being timed: "/home/min/git_repos/CS598MEBProject/CNT-ILP/build/cnt -s 2 ./output/k8_n30/simC_c1_k8_n30_u3_s1_del02.input-right.cnp"
	User time (seconds): 33.50
	System time (seconds): 0.31
	Percent of CPU this job got: 1409%
	Elapsed (wall clock) time (h:mm:ss or m:ss): 0:02.39
	Average shared text size (kbytes): 0
	Average unshared data size (kbytes): 0
	Average stack size (kbytes): 0
	Average total size (kbytes): 0
	Maximum resident set size (kbytes): 168920
	Average resident set size (kbytes): 0
	Major (requiring I/O) page faults: 0
	Minor (reclaiming a frame) page faults: 65699
	Voluntary context switches: 8917
	Involuntary context switches: 4183
	Swaps: 0
	File system inputs: 0
	File system outputs: 24
	Socket messages sent: 0
	Socket messages received: 0
	Signals delivered: 0
	Page size (bytes): 4096
	Exit status: 0
